
Log started (V11.0.0) Thu Apr 17 04:28:02 2008

Tried aggregator 1 time.
Reduced MIP has 140 rows, 4001 columns, and 8040 nonzeros.
Presolve time =    0.05 sec.
Clique table members: 100.
MIP emphasis: balance optimality and feasibility.
MIP search method: dynamic search.
Parallel mode: none, using 1 thread.
Root relaxation solution time =    0.11 sec.

        Nodes                                         Cuts/
   Node  Left     Objective  IInf  Best Integer     Best Node    ItCnt     Gap

*     0+    0                        15096.0000      256.9911      434   98.30%
*     0+    0                          325.0000      256.9911      434   20.93%
      0     0      258.2919    71      325.0000      Fract: 5      470   20.53%
*     0+    0                          319.0000      258.2919      470   19.03%
      0     0      278.0964    84      319.0000   MIRcuts: 40     1331   12.82%
      0     0      278.7360   102      319.0000   MIRcuts: 31     1531   12.62%
      0     0      278.7919   108      319.0000      Cuts: 21     1687   12.60%
      0     0      278.8584   119      319.0000   MIRcuts: 17     1777   12.58%
      0     0      278.9127   119      319.0000      Cuts: 14     1882   12.57%
      0     0      279.3431   119      319.0000   MIRcuts: 14     1952   12.43%
      0     0      279.3431   118      319.0000      Cuts: 11     1988   12.43%
      0     0      279.3792   124      319.0000       Cuts: 4     2019   12.42%
*     0+    0                          317.0000      279.3792     2019   11.87%
      0     0      279.3824   122      317.0000       Cuts: 2     2061   11.87%
*     0+    0                          316.0000      279.3824     2061   11.59%
*     0+    0                          315.0000      279.3824     2061   11.31%
*     0+    0                          314.0000      279.3824     2061   11.02%
      0     2      279.3824   122      314.0000      279.3824     2061   11.02%
*    60+   57                          313.0000      279.4175     4668   10.73%
    100    93      280.0000    75      313.0000      279.4175     8407   10.73%
    200   170      280.0000    75      313.0000      279.4175    23502   10.73%
    300   248      280.1605   107      313.0000      279.4175    38958   10.73%
    400   318      280.4616   113      313.0000      279.4175    57061   10.73%
    500   393      281.0000    71      313.0000      279.4175    69248   10.73%
*   511+  266                          312.0000      292.9824    74528    6.10%
*   511+  177                          311.0000      292.9824    74528    5.79%
*   511+  117                          310.0000      292.9824    74528    5.49%
*   511+   77                          308.0000      292.9824    74528    4.88%
*   511+   50                          307.0000      292.9824    74528    4.57%
*   511+   33                          306.0000      292.9824    74528    4.25%
    600    88      296.0000   101      306.0000      293.2107    76626    4.18%
    700   172      297.0000    56      306.0000      293.2107    83162    4.18%
    800   252      297.0000    55      306.0000      293.2107    90027    4.18%
    900   333      297.0000    60      306.0000      293.2107    96213    4.18%
   1000   414      298.1201    85      306.0000      293.2107   103507    4.18%
Elapsed time =  47.98 sec. (tree size =  1.72 MB, solutions = 14)
   1100   475      298.0000    59      306.0000      293.2107   116967    4.18%
   1200   552      298.0000    61      306.0000      293.2107   123868    4.18%
   1300   633      299.0000    57      306.0000      293.2107   127790    4.18%
   1400   702      299.6534    72      306.0000      293.2107   132446    4.18%
   1500   773      305.0000    48      306.0000      293.2898   136409    4.15%
*  1511+  737                          305.0000      293.2898   136618    3.84%
   1600   707      303.8849    93      305.0000      294.0000   157272    3.61%
   1700   712        cutoff            305.0000      295.0000   177434    3.28%
   1800   612        cutoff            305.0000      297.0000   196518    2.62%
   1900   512        cutoff            305.0000      297.0000   209941    2.62%
   2000   412        cutoff            305.0000      298.0000   218433    2.30%
Elapsed time =  79.70 sec. (tree size =  1.86 MB, solutions = 15)
   2100   312        cutoff            305.0000      298.0000   226280    2.30%
   2200   212        cutoff            305.0000      299.0000   230771    1.97%
   2300   112        cutoff            305.0000      300.0000   232837    1.64%
   2400   142      302.7624   179      305.0000      300.0000   242856    1.64%
   2500   177      301.8033   136      305.0000      301.0000   256367    1.31%
   2600   220      304.0000    38      305.0000      301.0000   270100    1.31%
   2700   247      304.0000    95      305.0000      301.0000   285121    1.31%
   2800   278      304.0000   111      305.0000      301.0000   300291    1.31%
   2900   294      304.0000    29      305.0000      301.0000   324346    1.31%
   3000   320      302.0000   220      305.0000      301.0000   346988    1.31%
Elapsed time = 143.03 sec. (tree size =  2.48 MB, solutions = 15)
   3100   352      304.0000    50      305.0000      301.0000   367725    1.31%
   3200   398      302.0000   135      305.0000      301.0000   391171    1.31%
   3300   441      304.0000   140      305.0000      301.0000   413767    1.31%
   3400   475    infeasible            305.0000      301.0000   440363    1.31%
   3500   477        cutoff            305.0000      302.0000   461681    0.98%
   3600   509      304.0000    34      305.0000      302.0000   471419    0.98%
   3700   536      303.9078   103      305.0000      302.0000   490206    0.98%
   3800   568      304.0000    55      305.0000      302.0000   518348    0.98%
   3900   587      304.0000   107      305.0000      302.0000   547422    0.98%
   4000   613      304.0000   110      305.0000      302.0000   570424    0.98%
Elapsed time = 233.39 sec. (tree size =  5.99 MB, solutions = 15)
   4100   637      304.0000    71      305.0000      302.0000   596610    0.98%
   4200   694      302.0000    79      305.0000      302.0000   603778    0.98%
   4300   740      304.0000    78      305.0000      302.0000   617418    0.98%
   4400   784      304.0000    31      305.0000      302.0000   636984    0.98%
   4500   802      304.0000   127      305.0000      302.0000   652089    0.98%
   4600   828      304.0000    76      305.0000      302.0000   666866    0.98%
   4700   842        cutoff            305.0000      302.0000   693171    0.98%
   4800   867      304.0000    91      305.0000      302.0000   713982    0.98%
   4900   900      303.9970   185      305.0000      302.0000   738442    0.98%
   5000   926        cutoff            305.0000      302.0000   769089    0.98%
Elapsed time = 303.31 sec. (tree size =  9.63 MB, solutions = 15)
   5100   956      304.0000    41      305.0000      302.0000   799595    0.98%
   5200   986      304.0000    68      305.0000      302.0000   827922    0.98%
   5300   999      302.0000   143      305.0000      302.0000   864749    0.98%
   5400  1018      304.0000   132      305.0000      302.0000   898989    0.98%
   5500  1049    infeasible            305.0000      302.0000   930588    0.98%
   5600  1021        cutoff            305.0000      303.0000   962607    0.66%
   5700  1007        cutoff            305.0000      303.0000   985038    0.66%
   5800  1006      303.7957   127      305.0000      303.0000  1000336    0.66%
   5900   983        cutoff            305.0000      303.0000  1014967    0.66%
   6000   975        cutoff            305.0000      303.0000  1043634    0.66%
Elapsed time = 411.39 sec. (tree size = 10.59 MB, solutions = 15)
   6100   964      304.0000    52      305.0000      303.0000  1067070    0.66%
   6200   976    infeasible            305.0000      303.0000  1090823    0.66%
   6300   986      304.0000   118      305.0000      303.0000  1118084    0.66%
   6400   994        cutoff            305.0000      303.0000  1160156    0.66%
   6500  1013      304.0000   146      305.0000      303.0000  1182795    0.66%
   6600  1032      304.0000   129      305.0000      303.0000  1211387    0.66%
   6700  1002    infeasible            305.0000      304.0000  1229097    0.33%
   6800   972      304.0000    17      305.0000      304.0000  1244332    0.33%
   6900   947    infeasible            305.0000      304.0000  1257665    0.33%
   7000   909    infeasible            305.0000      304.0000  1270540    0.33%
Elapsed time = 497.80 sec. (tree size = 10.06 MB, solutions = 15)
   7100   901      304.0000    20      305.0000      304.0000  1279450    0.33%
   7200   877    infeasible            305.0000      304.0000  1295087    0.33%
   7300   841    infeasible            305.0000      304.0000  1320228    0.33%
   7400   847      304.0000    31      305.0000      304.0000  1327385    0.33%
   7500   837    infeasible            305.0000      304.0000  1337283    0.33%
   7600   813      304.0000    59      305.0000      304.0000  1347860    0.33%
   7700   797      304.0000    65      305.0000      304.0000  1362858    0.33%
   7800   777    infeasible            305.0000      304.0000  1381190    0.33%
   7900   764    infeasible            305.0000      304.0000  1398531    0.33%
   8000   733      304.0000    78      305.0000      304.0000  1415783    0.33%
Elapsed time = 539.92 sec. (tree size =  8.15 MB, solutions = 15)
   8100   721    infeasible            305.0000      304.0000  1430671    0.33%
   8200   701    infeasible            305.0000      304.0000  1450926    0.33%
   8300   681    infeasible            305.0000      304.0000  1466537    0.33%
   8400   654    infeasible            305.0000      304.0000  1483924    0.33%
   8500   640    infeasible            305.0000      304.0000  1495810    0.33%
   8600   624    infeasible            305.0000      304.0000  1510286    0.33%
   8700   610    infeasible            305.0000      304.0000  1521169    0.33%
   8800   612      304.0000    40      305.0000      304.0000  1538664    0.33%
   8900   589    infeasible            305.0000      304.0000  1561265    0.33%
   9000   565    infeasible            305.0000      304.0000  1581690    0.33%
Elapsed time = 589.55 sec. (tree size =  6.31 MB, solutions = 15)
   9100   549    infeasible            305.0000      304.0000  1590909    0.33%
   9200   531    infeasible            305.0000      304.0000  1614513    0.33%
   9300   509      304.0000    68      305.0000      304.0000  1635624    0.33%
   9400   495      304.0000    58      305.0000      304.0000  1649498    0.33%
   9500   481    infeasible            305.0000      304.0000  1668378    0.33%
   9600   471      304.0000    51      305.0000      304.0000  1692249    0.33%
   9700   445      304.0000    60      305.0000      304.0000  1718873    0.33%
   9800   427    infeasible            305.0000      304.0000  1740909    0.33%
   9900   409    infeasible            305.0000      304.0000  1780588    0.33%
  10000   379    infeasible            305.0000      304.0000  1812345    0.33%
Elapsed time = 659.20 sec. (tree size =  4.26 MB, solutions = 15)
  10100   379    infeasible            305.0000      304.0000  1823859    0.33%
  10200   367    infeasible            305.0000      304.0000  1837914    0.33%
  10300   351      304.0000    70      305.0000      304.0000  1855313    0.33%
  10400   343      304.0000    46      305.0000      304.0000  1868409    0.33%
  10500   334      304.0000    71      305.0000      304.0000  1882856    0.33%
  10600   314      304.0000    60      305.0000      304.0000  1908117    0.33%
  10700   296    infeasible            305.0000      304.0000  1926781    0.33%
  10800   292    infeasible            305.0000      304.0000  1938647    0.33%
  10900   282      304.0000    74      305.0000      304.0000  1958531    0.33%
  11000   272      304.0000    32      305.0000      304.0000  1977976    0.33%
Elapsed time = 709.67 sec. (tree size =  3.06 MB, solutions = 15)
  11100   270    infeasible            305.0000      304.0000  1993686    0.33%
  11200   252      304.0000    49      305.0000      304.0000  2013851    0.33%
  11300   238      304.0000    52      305.0000      304.0000  2031154    0.33%
  11400   226      304.0000    44      305.0000      304.0000  2048534    0.33%
  11500   207      304.0000   109      305.0000      304.0000  2067391    0.33%
  11600   189      304.0000   146      305.0000      304.0000  2093339    0.33%
  11700   188    infeasible            305.0000      304.0000  2109410    0.33%
  11800   168    infeasible            305.0000      304.0000  2151345    0.33%
  11900   156    infeasible            305.0000      304.0000  2168544    0.33%
  12000   144    infeasible            305.0000      304.0000  2203913    0.33%
Elapsed time = 781.27 sec. (tree size =  1.64 MB, solutions = 15)
  12100   140    infeasible            305.0000      304.0000  2217484    0.33%
  12200   120    infeasible            305.0000      304.0000  2256785    0.33%
  12300   122      304.0000    35      305.0000      304.0000  2292053    0.33%
  12400   108      304.0000   115      305.0000      304.0000  2328653    0.33%
  12500   100    infeasible            305.0000      304.0000  2345207    0.33%
  12600    94      304.0000   129      305.0000      304.0000  2375608    0.33%
  12700    88      304.0000    91      305.0000      304.0000  2391375    0.33%
  12800    88    infeasible            305.0000      304.0000  2410193    0.33%
  12900    80    infeasible            305.0000      304.0000  2431363    0.33%
  13000    74    infeasible            305.0000      304.0000  2452688    0.33%
Elapsed time = 854.66 sec. (tree size =  0.86 MB, solutions = 15)
  13100    62      304.0000    50      305.0000      304.0000  2492406    0.33%
  13200    62    infeasible            305.0000      304.0000  2516523    0.33%
  13300    48    infeasible            305.0000      304.0000  2545189    0.33%
  13400    46    infeasible            305.0000      304.0000  2573305    0.33%
  13500    48      304.0000    88      305.0000      304.0000  2590161    0.33%
  13600    42      304.0000    73      305.0000      304.0000  2615184    0.33%
  13700    38    infeasible            305.0000      304.0000  2634815    0.33%
  13800    38      304.0000    66      305.0000      304.0000  2691818    0.33%
  13900    26    infeasible            305.0000      304.0000  2737844    0.33%
  14000    22    infeasible            305.0000      304.0000  2774755    0.33%
Elapsed time = 951.91 sec. (tree size =  0.27 MB, solutions = 15)
  14100    20    infeasible            305.0000      304.0000  2815500    0.33%
  14200    13      304.0000    76      305.0000      304.0000  2846822    0.33%
  14300     9    infeasible            305.0000      304.0000  2881576    0.33%
  14400     3    infeasible            305.0000      304.0000  2933222    0.33%
  14500     3      304.0000   101      305.0000      304.0000  2963803    0.33%

Cover cuts applied:  632
Mixed integer rounding cuts applied:  65
Gomory fractional cuts applied:  3

Solution pool: 15 solutions saved.

MIP - Integer optimal solution:  Objective = 3.0500000000e+002
Solution time = 1013.84 sec.  Iterations = 2970885  Nodes = 14512


Incumbent solution
Variable Name           Solution Value
Cmax                        305.000000
X_1_13                        1.000000
X_2_5                         1.000000
X_3_17                        1.000000
X_4_4                         1.000000
X_5_13                        1.000000
X_6_32                        1.000000
X_7_35                        1.000000
X_8_38                        1.000000
X_9_7                         1.000000
X_10_14                       1.000000
X_11_40                       1.000000
X_12_36                       1.000000
X_13_18                       1.000000
X_14_16                       1.000000
X_15_30                       1.000000
X_16_30                       1.000000
X_17_33                       1.000000
X_18_18                       1.000000
X_19_11                       1.000000
X_20_2                        1.000000
X_21_20                       1.000000
X_22_22                       1.000000
X_23_36                       1.000000
X_24_24                       1.000000
X_25_40                       1.000000
X_26_36                       1.000000
X_27_6                        1.000000
X_28_28                       1.000000
X_29_31                       1.000000
X_30_14                       1.000000
X_31_10                       1.000000
X_32_38                       1.000000
X_33_29                       1.000000
X_34_39                       1.000000
X_35_21                       1.000000
X_36_33                       1.000000
X_37_8                        1.000000
X_38_12                       1.000000
X_39_29                       1.000000
X_40_3                        1.000000
X_41_35                       1.000000
X_42_5                        1.000000
X_43_9                        1.000000
X_44_12                       1.000000
X_45_25                       1.000000
X_46_11                       1.000000
X_47_20                       1.000000
X_48_2                        1.000000
X_49_22                       1.000000
X_50_38                       1.000000
X_51_8                        1.000000
X_52_34                       1.000000
X_53_37                       1.000000
X_54_1                        1.000000
X_55_28                       1.000000
X_56_16                       1.000000
X_57_8                        1.000000
X_58_35                       1.000000
X_59_28                       1.000000
X_60_27                       1.000000
X_61_25                       1.000000
X_62_32                       1.000000
X_63_6                        1.000000
X_64_40                       1.000000
X_65_5                        1.000000
X_66_39                       1.000000
X_67_16                       1.000000
X_68_20                       1.000000
X_69_22                       1.000000
X_70_17                       1.000000
X_71_1                        1.000000
X_72_26                       1.000000
X_73_31                       1.000000
X_74_10                       1.000000
X_75_23                       1.000000
X_76_26                       1.000000
X_77_3                        1.000000
X_78_6                        1.000000
X_79_18                       1.000000
X_80_23                       1.000000
X_81_25                       1.000000
X_82_37                       1.000000
X_83_33                       1.000000
X_84_27                       1.000000
X_85_15                       1.000000
X_86_17                       1.000000
X_87_34                       1.000000
X_88_15                       1.000000
X_89_7                        1.000000
X_90_19                       1.000000
X_91_4                        1.000000
X_92_10                       1.000000
X_93_24                       1.000000
X_94_19                       1.000000
X_95_27                       1.000000
X_96_9                        1.000000
X_97_34                       1.000000
X_98_13                       1.000000
X_99_26                       1.000000
X_100_21                      1.000000
All other variables in the range 1-4001 are 0.
